p edges 48 482
e 1 16
e 1 17
e 1 18
e 1 19
e 1 20
e 1 21
e 1 22
e 1 23
e 1 24
e 1 25
e 1 26
e 1 27
e 1 28
e 1 29
e 1 30
e 1 31
e 1 32
e 1 33
e 1 34
e 1 35
e 1 36
e 1 37
e 1 38
e 1 39
e 1 40
e 1 41
e 1 42
e 1 43
e 2 13
e 2 14
e 2 15
e 3 30
e 3 31
e 3 32
e 3 33
e 3 34
e 3 35
e 3 36
e 3 37
e 3 38
e 3 39
e 3 40
e 3 41
e 3 42
e 3 43
e 4 8
e 5 13
e 6 30
e 7 8
e 7 44
e 8 44
e 9 10
e 9 11
e 9 12
e 9 13
e 9 14
e 9 15
e 9 46
e 10 11
e 10 12
e 10 13
e 10 14
e 10 15
e 10 46
e 11 12
e 11 13
e 11 14
e 11 15
e 11 46
e 11 47
e 12 13
e 12 14
e 12 15
e 12 46
e 12 47
e 13 14
e 13 15
e 13 44
e 13 45
e 13 46
e 14 15
e 14 45
e 14 46
e 15 45
e 15 46
e 16 17
e 16 18
e 16 19
e 16 20
e 16 21
e 16 22
e 16 23
e 16 24
e 16 25
e 16 26
e 16 27
e 16 28
e 16 29
e 16 30
e 16 31
e 16 32
e 16 33
e 16 34
e 16 35
e 16 36
e 16 37
e 16 38
e 16 39
e 16 40
e 16 41
e 16 42
e 16 43
e 17 18
e 17 19
e 17 20
e 17 21
e 17 22
e 17 23
e 17 24
e 17 25
e 17 26
e 17 27
e 17 28
e 17 29
e 17 30
e 17 31
e 17 32
e 17 33
e 17 34
e 17 35
e 17 36
e 17 37
e 17 38
e 17 39
e 17 40
e 17 41
e 17 42
e 17 43
e 18 19
e 18 20
e 18 21
e 18 22
e 18 23
e 18 24
e 18 25
e 18 26
e 18 27
e 18 28
e 18 29
e 18 30
e 18 31
e 18 32
e 18 33
e 18 34
e 18 35
e 18 36
e 18 37
e 18 38
e 18 39
e 18 40
e 18 41
e 18 42
e 18 43
e 19 20
e 19 21
e 19 22
e 19 23
e 19 24
e 19 25
e 19 26
e 19 27
e 19 28
e 19 29
e 19 30
e 19 31
e 19 32
e 19 33
e 19 34
e 19 35
e 19 36
e 19 37
e 19 38
e 19 39
e 19 40
e 19 41
e 19 42
e 19 43
e 20 21
e 20 22
e 20 23
e 20 24
e 20 25
e 20 26
e 20 27
e 20 28
e 20 29
e 20 30
e 20 31
e 20 32
e 20 33
e 20 34
e 20 35
e 20 36
e 20 37
e 20 38
e 20 39
e 20 40
e 20 41
e 20 42
e 20 43
e 21 22
e 21 23
e 21 24
e 21 25
e 21 26
e 21 27
e 21 28
e 21 29
e 21 30
e 21 31
e 21 32
e 21 33
e 21 34
e 21 35
e 21 36
e 21 37
e 21 38
e 21 39
e 21 40
e 21 41
e 21 42
e 21 43
e 22 23
e 22 24
e 22 25
e 22 26
e 22 27
e 22 28
e 22 29
e 22 30
e 22 31
e 22 32
e 22 33
e 22 34
e 22 35
e 22 36
e 22 37
e 22 38
e 22 39
e 22 40
e 22 41
e 22 42
e 22 43
e 23 24
e 23 25
e 23 26
e 23 27
e 23 28
e 23 29
e 23 30
e 23 31
e 23 32
e 23 33
e 23 34
e 23 35
e 23 36
e 23 37
e 23 38
e 23 39
e 23 40
e 23 41
e 23 42
e 23 43
e 24 25
e 24 26
e 24 27
e 24 28
e 24 29
e 24 30
e 24 31
e 24 32
e 24 33
e 24 34
e 24 35
e 24 36
e 24 37
e 24 38
e 24 39
e 24 40
e 24 41
e 24 42
e 24 43
e 25 26
e 25 27
e 25 28
e 25 29
e 25 30
e 25 31
e 25 32
e 25 33
e 25 34
e 25 35
e 25 36
e 25 37
e 25 38
e 25 39
e 25 40
e 25 41
e 25 42
e 25 43
e 26 27
e 26 28
e 26 29
e 26 30
e 26 31
e 26 32
e 26 33
e 26 34
e 26 35
e 26 36
e 26 37
e 26 38
e 26 39
e 26 40
e 26 41
e 26 42
e 26 43
e 27 28
e 27 29
e 27 30
e 27 31
e 27 32
e 27 33
e 27 34
e 27 35
e 27 36
e 27 37
e 27 38
e 27 39
e 27 40
e 27 41
e 27 42
e 27 43
e 28 29
e 28 30
e 28 31
e 28 32
e 28 33
e 28 34
e 28 35
e 28 36
e 28 37
e 28 38
e 28 39
e 28 40
e 28 41
e 28 42
e 28 43
e 29 30
e 29 31
e 29 32
e 29 33
e 29 34
e 29 35
e 29 36
e 29 37
e 29 38
e 29 39
e 29 40
e 29 41
e 29 42
e 29 43
e 30 31
e 30 32
e 30 33
e 30 34
e 30 35
e 30 36
e 30 37
e 30 38
e 30 39
e 30 40
e 30 41
e 30 42
e 30 43
e 30 46
e 30 47
e 30 48
e 31 32
e 31 33
e 31 34
e 31 35
e 31 36
e 31 37
e 31 38
e 31 39
e 31 40
e 31 41
e 31 42
e 31 43
e 31 47
e 31 48
e 32 33
e 32 34
e 32 35
e 32 36
e 32 37
e 32 38
e 32 39
e 32 40
e 32 41
e 32 42
e 32 43
e 32 47
e 32 48
e 33 34
e 33 35
e 33 36
e 33 37
e 33 38
e 33 39
e 33 40
e 33 41
e 33 42
e 33 43
e 33 47
e 33 48
e 34 35
e 34 36
e 34 37
e 34 38
e 34 39
e 34 40
e 34 41
e 34 42
e 34 43
e 34 47
e 34 48
e 35 36
e 35 37
e 35 38
e 35 39
e 35 40
e 35 41
e 35 42
e 35 43
e 35 47
e 35 48
e 36 37
e 36 38
e 36 39
e 36 40
e 36 41
e 36 42
e 36 43
e 36 48
e 37 38
e 37 39
e 37 40
e 37 41
e 37 42
e 37 43
e 37 48
e 38 39
e 38 40
e 38 41
e 38 42
e 38 43
e 39 40
e 39 41
e 39 42
e 39 43
e 40 41
e 40 42
e 40 43
e 41 42
e 41 43
e 42 43
e 44 45
e 46 47
e 46 48
e 47 48
w 1 962
w 2 500
w 3 500
w 4 500
w 5 500
w 6 500
w 7 500
w 8 500
w 9 166
w 10 166
w 11 83
w 12 83
w 13 166
w 14 166
w 15 166
w 16 18
w 17 37
w 18 37
w 19 37
w 20 37
w 21 37
w 22 37
w 23 37
w 24 37
w 25 37
w 26 37
w 27 37
w 28 37
w 29 37
w 30 37
w 31 37
w 32 37
w 33 37
w 34 37
w 35 37
w 36 37
w 37 37
w 38 37
w 39 37
w 40 37
w 41 37
w 42 37
w 43 18
w 44 500
w 45 500
w 46 833
w 47 83
w 48 83
n 1 C2711
n 2 C0649
n 3 C0650
n 4 C0739
n 5 C1058
n 6 C1377
n 7 C1697
n 8 C1812
n 9 C2018
n 10 C2019
n 11 C2020
n 12 C2021
n 13 C2102
n 14 C2103
n 15 C2104
n 16 C2347
n 17 C2348
n 18 C2349
n 19 C2350
n 20 C2351
n 21 C2352
n 22 C2353
n 23 C2354
n 24 C2355
n 25 C2356
n 26 C2357
n 27 C2358
n 28 C2359
n 29 C2360
n 30 C2363
n 31 C2364
n 32 C2365
n 33 C2366
n 34 C2367
n 35 C2368
n 36 C2369
n 37 C2370
n 38 C2371
n 39 C2372
n 40 C2373
n 41 C2374
n 42 C2375
n 43 C2376
n 44 C2653
n 45 C2655
n 46 C2682
n 47 C2687
n 48 C2689
o 1 1
o 2 68
o 3 98
o 4 129
o 5 448
o 6 767
o 7 1087
o 8 1202
o 9 1408
o 10 1409
o 11 1410
o 12 1411
o 13 1492
o 14 1493
o 15 1494
o 16 1737
o 17 1738
o 18 1739
o 19 1740
o 20 1741
o 21 1742
o 22 1743
o 23 1744
o 24 1745
o 25 1746
o 26 1747
o 27 1748
o 28 1749
o 29 1750
o 30 1753
o 31 1754
o 32 1755
o 33 1756
o 34 1757
o 35 1758
o 36 1759
o 37 1760
o 38 1761
o 39 1762
o 40 1763
o 41 1764
o 42 1765
o 43 1766
o 44 2043
o 45 2045
o 46 2072
o 47 2077
o 48 2079
